========================================================== 
File name: C:\DEGR\assets\definitions\MSRCPSP_Gen\500_40_512_5_B.def
Creation date: Sat May 06 09:16:25 CEST 2023
Website: http://imopse.ii.pwr.edu.pl/ 
Reference: 
Myszkowski P. B., Skowronski M. E., Olech L., Oslizlo K., 
Hybrid Ant Colony Optimization in solving Multi-Skill Resource-Constrained Project Scheduling Problem, 
Soft Computing, DOI: DOI 10.1007/s00500-014-1455-x 
========================================================== 
General characteristics: 
Tasks: 500
Resources: 40
Precedence relations: 511
Number of skill types: 5
========================================================== 
ResourceID 	 Salary 	 Skills 
1	 	 	50.9	 	 Q1: 2 	 
2	 	 	64.0	 	 Q0: 3 	  Q2: 2 	 
3	 	 	24.4	 	 Q2: 2 	  Q4: 3 	 
4	 	 	18.5	 	 Q0: 0 	  Q2: 3 	 
5	 	 	77.4	 	 Q2: 3 	  Q3: 3 	  Q0: 1 	  Q4: 3 	 
6	 	 	70.0	 	 Q2: 2 	 
7	 	 	96.6	 	 Q3: 0 	  Q4: 3 	 
8	 	 	57.4	 	 Q2: 1 	  Q3: 1 	 
9	 	 	40.7	 	 Q4: 2 	  Q2: 2 	  Q0: 2 	 
10	 	 	42.4	 	 Q4: 0 	  Q2: 1 	  Q1: 0 	 
11	 	 	79.6	 	 Q3: 3 	  Q2: 1 	  Q0: 3 	 
12	 	 	64.2	 	 Q4: 1 	  Q2: 2 	  Q1: 3 	 
13	 	 	34.7	 	 Q2: 3 	  Q1: 3 	 
14	 	 	47.8	 	 Q4: 1 	  Q1: 1 	  Q0: 2 	  Q2: 3 	 
15	 	 	22.4	 	 Q2: 1 	  Q4: 3 	 
16	 	 	60.3	 	 Q0: 2 	 
17	 	 	33.6	 	 Q0: 0 	  Q1: 0 	  Q4: 2 	 
18	 	 	27.1	 	 Q0: 2 	  Q3: 0 	 
19	 	 	41.4	 	 Q0: 1 	 
20	 	 	85.2	 	 Q1: 1 	  Q0: 2 	 
21	 	 	95.3	 	 Q0: 1 	  Q1: 3 	  Q4: 1 	  Q2: 3 	 
22	 	 	96.5	 	 Q0: 2 	  Q2: 3 	 
23	 	 	96.0	 	 Q2: 1 	  Q4: 3 	  Q1: 1 	 
24	 	 	67.2	 	 Q2: 2 	  Q1: 3 	 
25	 	 	36.8	 	 Q4: 3 	 
26	 	 	23.9	 	 Q0: 3 	  Q4: 2 	  Q1: 1 	 
27	 	 	34.2	 	 Q1: 0 	  Q0: 3 	  Q4: 2 	  Q2: 1 	 
28	 	 	40.9	 	 Q0: 3 	  Q1: 1 	 
29	 	 	23.6	 	 Q4: 2 	  Q2: 1 	  Q3: 0 	  Q0: 0 	 
30	 	 	73.6	 	 Q2: 1 	  Q4: 0 	  Q3: 2 	  Q0: 1 	 
31	 	 	22.1	 	 Q4: 2 	 
32	 	 	52.4	 	 Q3: 3 	  Q0: 1 	  Q4: 3 	  Q1: 3 	 
33	 	 	36.0	 	 Q3: 1 	  Q4: 1 	  Q2: 2 	 
34	 	 	79.8	 	 Q3: 2 	  Q1: 1 	  Q0: 1 	 
35	 	 	13.3	 	 Q1: 0 	  Q0: 1 	  Q3: 2 	  Q4: 2 	 
36	 	 	60.7	 	 Q2: 2 	  Q3: 1 	  Q0: 2 	 
37	 	 	27.2	 	 Q0: 3 	  Q3: 3 	 
38	 	 	51.5	 	 Q3: 0 	  Q0: 2 	  Q1: 2 	 
39	 	 	63.1	 	 Q1: 2 	  Q4: 3 	  Q3: 1 	 
40	 	 	15.9	 	 Q3: 3 	  Q2: 2 	  Q1: 3 	 
========================================================== 
TaskID 	 Duration 	 Skill 	 Predecessor IDs 
1	26	Q4:	2
2	28	Q0:	0
3	15	Q2:	3
4	9	Q3:	3
5	16	Q4:	1
6	16	Q4:	2
7	12	Q4:	2
8	18	Q4:	0
9	9	Q1:	0
10	35	Q3:	2
11	40	Q0:	0
12	24	Q2:	3
13	12	Q3:	1
14	39	Q3:	0
15	22	Q1:	1
16	29	Q0:	2
17	26	Q0:	3
18	24	Q1:	3
19	23	Q2:	1	5
20	9	Q0:	3
21	29	Q4:	0
22	23	Q3:	2	8
23	35	Q1:	0
24	22	Q0:	2	15
25	24	Q1:	2	7
26	16	Q4:	1
27	25	Q1:	3
28	38	Q2:	3
29	35	Q2:	3	12
30	23	Q0:	0
31	19	Q4:	2
32	32	Q0:	0
33	13	Q3:	1
34	38	Q3:	2
35	22	Q0:	0
36	36	Q3:	3
37	23	Q0:	2
38	34	Q3:	0
39	27	Q1:	2
40	37	Q3:	3
41	16	Q3:	2
42	30	Q2:	3
43	38	Q4:	1
44	34	Q4:	2
45	16	Q0:	0	10
46	22	Q2:	2
47	33	Q4:	2
48	25	Q0:	3
49	31	Q1:	3	24
50	21	Q1:	3
51	30	Q0:	3
52	40	Q4:	2
53	19	Q2:	3
54	19	Q2:	3	6	19
55	14	Q3:	0
56	14	Q3:	0
57	36	Q3:	3	20	51
58	25	Q0:	2
59	40	Q2:	1
60	40	Q3:	1	7
61	29	Q4:	3
62	30	Q4:	2
63	37	Q0:	2	40
64	28	Q1:	2
65	37	Q4:	0	16
66	9	Q4:	2	38
67	33	Q4:	0
68	37	Q1:	1
69	27	Q1:	1
70	18	Q4:	2
71	36	Q0:	2	12
72	35	Q2:	2	12
73	12	Q0:	3
74	25	Q1:	0
75	19	Q0:	1
76	20	Q3:	3
77	18	Q3:	2	54
78	37	Q2:	2	14
79	21	Q1:	3
80	9	Q3:	3
81	11	Q2:	3
82	38	Q0:	2
83	20	Q1:	3
84	18	Q2:	3
85	18	Q3:	3
86	21	Q2:	3
87	20	Q0:	1	76	21	62
88	39	Q4:	3
89	13	Q3:	2	31
90	23	Q4:	0
91	14	Q3:	1
92	35	Q0:	1	18
93	14	Q4:	2	92
94	36	Q0:	1
95	31	Q0:	3
96	35	Q3:	1
97	28	Q4:	3
98	24	Q0:	0	38
99	39	Q4:	3
100	25	Q1:	1	51
101	38	Q2:	1
102	32	Q3:	1
103	28	Q1:	2
104	26	Q3:	1
105	25	Q3:	3	21
106	33	Q1:	3
107	40	Q0:	0
108	22	Q2:	2
109	32	Q0:	2
110	34	Q2:	1
111	31	Q4:	3
112	17	Q3:	3
113	10	Q3:	3	61
114	12	Q1:	3
115	34	Q1:	0	64
116	30	Q4:	0
117	32	Q0:	3
118	28	Q3:	3
119	22	Q3:	0	114
120	33	Q0:	3
121	28	Q3:	3	96
122	19	Q4:	0
123	29	Q1:	0	110	31
124	36	Q2:	2	45
125	25	Q3:	2
126	29	Q2:	2	26
127	37	Q0:	3
128	26	Q4:	2
129	38	Q3:	3
130	37	Q4:	2
131	34	Q4:	3	24
132	39	Q3:	3	11
133	34	Q3:	1
134	28	Q3:	1	56
135	12	Q0:	0
136	33	Q0:	3	98
137	28	Q1:	0
138	17	Q4:	3
139	34	Q4:	0
140	11	Q3:	3	34	138
141	30	Q2:	1
142	37	Q3:	2
143	23	Q4:	3
144	17	Q3:	1
145	30	Q3:	0	118
146	15	Q0:	3	130
147	23	Q0:	1
148	35	Q0:	0	104	102
149	32	Q4:	2	1
150	32	Q3:	2	43
151	35	Q1:	1
152	35	Q1:	3
153	12	Q1:	2	114	83
154	27	Q0:	2
155	18	Q2:	1	80	124
156	19	Q1:	2	99
157	27	Q3:	1	14
158	31	Q2:	1	84
159	32	Q4:	0	150
160	23	Q3:	0	90
161	9	Q3:	0
162	37	Q0:	2
163	27	Q2:	1	26
164	15	Q3:	1	110	71
165	15	Q2:	3
166	39	Q4:	1
167	40	Q0:	1
168	33	Q2:	3	118	32
169	17	Q0:	2	154
170	16	Q4:	0	43
171	15	Q1:	2	165
172	39	Q4:	2	109	147
173	20	Q4:	2	120	36
174	33	Q1:	3
175	23	Q2:	3
176	39	Q1:	2	71
177	21	Q3:	2	86
178	17	Q0:	0
179	23	Q0:	0	148
180	25	Q3:	0	65
181	40	Q4:	2
182	24	Q2:	3	173
183	22	Q1:	3
184	33	Q0:	0	17
185	26	Q3:	3
186	34	Q0:	1	4	131	153
187	33	Q0:	1
188	9	Q3:	2
189	11	Q0:	2
190	16	Q3:	0	20
191	29	Q4:	2	187
192	36	Q3:	0	8
193	19	Q0:	2
194	40	Q2:	2
195	22	Q1:	0
196	9	Q0:	3	70	190
197	33	Q3:	1
198	34	Q4:	2	28
199	21	Q4:	0	129
200	30	Q1:	0	89	72
201	12	Q0:	3	26
202	26	Q3:	2	71	77
203	33	Q4:	0	137	59	189
204	30	Q3:	3	28	55
205	20	Q4:	1	157
206	12	Q4:	2	128
207	36	Q0:	2	114	88	63
208	9	Q2:	3	39
209	13	Q4:	0	136
210	32	Q4:	0
211	14	Q3:	1	81	53
212	31	Q1:	1	84	178	14	180
213	34	Q2:	2
214	13	Q2:	2
215	30	Q0:	2	23	24
216	17	Q4:	0	87
217	21	Q0:	3	163
218	14	Q4:	0	68	14	8
219	14	Q3:	2	109	92
220	10	Q1:	2	141
221	25	Q0:	0
222	18	Q2:	1
223	26	Q1:	3	214
224	29	Q4:	1	7
225	9	Q3:	0
226	22	Q1:	0
227	16	Q1:	2	106
228	25	Q4:	3	35
229	38	Q0:	3	88	71
230	37	Q1:	3	200
231	16	Q4:	3	100
232	20	Q4:	0	152
233	35	Q1:	0	211
234	11	Q4:	1	185	162
235	40	Q2:	3	199
236	11	Q4:	1
237	35	Q0:	3
238	33	Q1:	3	184	47
239	23	Q0:	1
240	12	Q2:	3	140
241	24	Q2:	2	82
242	29	Q0:	0
243	18	Q0:	3
244	17	Q0:	3	99	192
245	27	Q0:	3	98
246	20	Q1:	1
247	12	Q3:	0
248	34	Q3:	1	50
249	30	Q2:	1	203	182
250	40	Q3:	3
251	17	Q4:	0
252	39	Q4:	2	155
253	31	Q0:	1	197
254	14	Q4:	0
255	17	Q0:	1
256	30	Q0:	2	229
257	10	Q3:	2	106
258	19	Q0:	0	240	102
259	32	Q2:	3	211	127
260	31	Q2:	3
261	19	Q0:	2
262	27	Q1:	0	126
263	34	Q2:	1
264	15	Q0:	0	2
265	28	Q2:	3	88
266	23	Q0:	2
267	25	Q0:	2	18	228
268	17	Q0:	0	233	96
269	35	Q0:	1	264	83
270	15	Q3:	2	264
271	19	Q1:	1
272	23	Q0:	1
273	19	Q4:	3	46	128
274	34	Q3:	3	34
275	38	Q2:	1	130	166
276	26	Q2:	1	78	65
277	15	Q0:	1
278	16	Q4:	3
279	40	Q2:	3	192	11
280	31	Q0:	3
281	35	Q3:	0	16	234	153
282	23	Q3:	3	15	265
283	21	Q0:	0	87	228
284	39	Q4:	1	100
285	16	Q1:	3	28	282
286	35	Q0:	1
287	22	Q3:	0	255	218
288	22	Q0:	1	212	206	250
289	14	Q2:	2
290	10	Q4:	0
291	32	Q2:	3	283	12	80
292	21	Q1:	2	12
293	28	Q1:	3
294	38	Q1:	3	252	186
295	29	Q3:	2	227
296	19	Q4:	0	204
297	34	Q4:	3
298	40	Q0:	3
299	23	Q3:	0	23	72	68
300	10	Q2:	2
301	18	Q0:	3	77
302	20	Q2:	3
303	35	Q4:	2	49	98
304	26	Q0:	0
305	28	Q0:	3	205	94
306	16	Q1:	3	217
307	38	Q2:	1	162
308	28	Q0:	1
309	9	Q1:	1	118	31	10
310	23	Q1:	2	275
311	20	Q3:	3
312	25	Q0:	3
313	22	Q3:	2	176
314	34	Q4:	1	56
315	17	Q3:	2	85
316	32	Q4:	0	89
317	27	Q1:	0	270
318	34	Q2:	3	122
319	19	Q3:	0	112
320	38	Q3:	3	301	59	272
321	26	Q2:	3
322	33	Q0:	2
323	29	Q3:	0
324	20	Q0:	3	286	282
325	18	Q1:	0	200	52	59
326	15	Q3:	3	193	171
327	24	Q1:	1	97
328	10	Q3:	3	45	319	273
329	39	Q1:	1	239
330	38	Q4:	0	226	206	234
331	38	Q2:	1	20	8
332	34	Q1:	1	140	226	207	185
333	37	Q4:	1	41	93	238
334	26	Q0:	3	238
335	27	Q3:	1	229	61
336	13	Q1:	3	83
337	18	Q3:	0	276
338	11	Q1:	0
339	33	Q3:	2
340	19	Q2:	3
341	33	Q0:	0
342	40	Q0:	0	314	34
343	12	Q0:	1	332
344	23	Q4:	0	227	145	153
345	16	Q0:	3	156	35
346	27	Q4:	0	207	260
347	24	Q4:	2	222
348	12	Q2:	1	236	40	110
349	40	Q2:	1	201	111	196
350	23	Q2:	2
351	19	Q1:	1	124	252	297
352	30	Q4:	3	219
353	10	Q4:	1	36
354	23	Q3:	1	175	176
355	21	Q0:	1
356	32	Q1:	3	28	330	132
357	38	Q1:	2	123	90
358	26	Q3:	3	58	240	309
359	35	Q0:	1	170	348	111
360	25	Q2:	2	213
361	39	Q3:	0
362	32	Q1:	1
363	9	Q0:	2	210
364	19	Q2:	2
365	20	Q4:	0	55	285
366	29	Q0:	2	133
367	9	Q1:	2
368	23	Q2:	2	29
369	34	Q1:	1	361	291
370	23	Q0:	0	106	356
371	17	Q2:	3
372	9	Q1:	2	48
373	38	Q3:	2	147	129
374	35	Q1:	2	170
375	28	Q3:	3	109	153
376	20	Q2:	3	371	86
377	32	Q0:	1	50
378	16	Q0:	3	117
379	29	Q3:	0
380	11	Q2:	2
381	39	Q0:	0	194	322
382	13	Q4:	3	214	89	269
383	19	Q4:	1	72	306
384	18	Q0:	2	141
385	30	Q0:	1	36	194	296
386	10	Q0:	1	226	102	346
387	18	Q2:	3	38
388	31	Q0:	2
389	28	Q2:	3	220	147	109
390	35	Q1:	0	27
391	17	Q4:	1	365
392	31	Q3:	2	341
393	28	Q0:	1	124
394	11	Q3:	0	236	132
395	37	Q0:	0	139
396	10	Q2:	3	28	138	131	333
397	37	Q3:	2	88
398	29	Q2:	1	149	72	213
399	39	Q4:	2	206	41
400	33	Q0:	2	177
401	21	Q4:	0
402	35	Q0:	3	83
403	38	Q0:	0	194	28	284	205
404	14	Q3:	2
405	20	Q0:	3
406	10	Q1:	3
407	15	Q2:	1	317	217	64	397
408	28	Q4:	1
409	23	Q1:	1	96
410	39	Q0:	1	125	27
411	25	Q0:	0	6
412	21	Q1:	2	33
413	38	Q0:	3	256	278
414	39	Q0:	0	15	67
415	25	Q1:	2	40	172
416	36	Q4:	3	104
417	14	Q4:	3
418	30	Q1:	1	397	40	37
419	28	Q1:	3	321
420	21	Q1:	2	62	183
421	28	Q4:	2	84
422	35	Q0:	1	104	237
423	24	Q0:	0
424	25	Q1:	1	281
425	19	Q2:	1	26	138
426	24	Q0:	2	241
427	12	Q2:	2	327	35	219	49
428	26	Q2:	3	377
429	12	Q3:	2	316	407
430	22	Q1:	1	14	210	159
431	24	Q3:	2	161	107	421
432	11	Q3:	3
433	9	Q0:	1	228
434	24	Q4:	3	116	120	84
435	17	Q4:	0	131	167
436	27	Q2:	1	111	405	240	264
437	10	Q4:	1	68	366
438	10	Q3:	1	76	102	133	345
439	21	Q2:	1	63
440	27	Q0:	0
441	12	Q1:	2	409
442	32	Q4:	3	196	101	154	314
443	26	Q0:	3	421
444	39	Q2:	2	436
445	11	Q0:	1
446	23	Q0:	2	140
447	21	Q2:	3	79
448	10	Q1:	2	359
449	40	Q0:	1	372
450	22	Q3:	0	36	173	266	57	395	219	149
451	34	Q2:	3	383	334
452	39	Q2:	3	286
453	22	Q2:	1	162	406	310
454	32	Q3:	2	14
455	17	Q4:	2	157	397	32
456	20	Q1:	2	388	13
457	10	Q1:	2	174	205	322	422
458	30	Q2:	1	48
459	14	Q3:	0	363
460	16	Q2:	3	226	340
461	33	Q0:	2
462	27	Q1:	3
463	12	Q4:	0	407
464	12	Q0:	3
465	19	Q2:	3	301	109
466	17	Q3:	0	396	151
467	23	Q1:	1
468	21	Q4:	2	84	91	160
469	14	Q2:	3	188
470	12	Q0:	2
471	35	Q1:	3	118
472	40	Q3:	3	179	151	9
473	23	Q3:	0
474	30	Q3:	2	207
475	28	Q1:	3	134	453
476	29	Q0:	0	175	336	209
477	23	Q0:	3	79	442
478	36	Q2:	2	77	152
479	11	Q1:	3	252	42
480	9	Q0:	2	284	162	168
481	19	Q3:	2	347	144	222	9
482	15	Q4:	0	242	385	326	4	234
483	25	Q3:	1	262	396
484	10	Q3:	0	337	69	64
485	32	Q1:	0
486	30	Q4:	0	139	270
487	35	Q0:	0	281
488	27	Q0:	3	394	187	421	224	306
489	23	Q1:	3	59	437
490	10	Q0:	1	379	125	313
491	26	Q0:	1
492	21	Q2:	1	422	200
493	18	Q3:	0	269	38
494	33	Q3:	2	336	168
495	13	Q4:	2	464	227	205
496	28	Q4:	2	97
497	9	Q1:	3	468
498	30	Q4:	1	470	273	20
499	22	Q0:	3	98	197	471	310	488
500	37	Q0:	3
========================================================== 